3 32 1 10
18 12 10 4 4 13 13 12 9 20 7 16 11 16 20 2 16 11 6 8 19 9 4 20 9 3 8 13 20 18 1 3 
10.39 11.32 8.14 3.52 2.49 5.09 10.27 13.44 12.93 0.66 12.27 12.75 1.24 13.17 12.72 5.62 5.53 9.95 13.64 8.12 8.99 4.12 1.28 12.53 11.92 0.29 9.02 8.61 7.22 15.37 10.22 9.49 
8 8 8 8 8 8 8 8 8 8 8 8 8 8 8 8 8 8 8 8 8 8 8 8 8 8 8 8 8 8 8 8 
7.1 5.12 0.59 3.24 14.6 15.43 4.6 9.15 4.47 0.15 0.8 2.81 11.48 6.06 14.55 7.19 7.41 5.77 13.03 14.76 5.26 4.99 6.16 13.11 4.67 14.12 4.72 6.74 8.98 0.1 5.22 5.4 
1 1 1 1 1 1 1 1 1 1 1 1 1 1 1 1 1 1 1 1 1 1 1 1 1 1 1 1 1 1 1 1 
1 1 1 1 1 1 1 1 1 1 1 1 1 1 1 1 1 1 1 1 1 1 1 1 1 1 1 1 1 1 1 1 
1 1 1 1 1 1 1 1 1 1 1 1 1 1 1 1 1 1 1 1 1 1 1 1 1 1 1 1 1 1 1 1 
0.01 0.01 0.01 0.01 0.01 0.01 0.01 0.01 0.01 0.01 0.01 0.01 0.01 0.01 0.01 0.01 0.01 0.01 0.01 0.01 0.01 0.01 0.01 0.01 0.01 0.01 0.01 0.01 0.01 0.01 0.01 0.01 
0.02 0.02 0.02 0.02 0.02 0.02 0.02 0.02 0.02 0.02 0.02 0.02 0.02 0.02 0.02 0.02 0.02 0.02 0.02 0.02 0.02 0.02 0.02 0.02 0.02 0.02 0.02 0.02 0.02 0.02 0.02 0.02 
1 1 1 1 1 1 1 1 1 1 1 1 1 1 1 1 1 1 1 1 1 1 1 1 1 1 1 1 1 1 1 1 
